(set-info :smt-lib-version 2.6)
(set-logic UF)
(set-info :source |Benchmarks from the paper: "Extending Sledgehammer with SMT Solvers" by Jasmin Blanchette, Sascha Bohme, and Lawrence C. Paulson, CADE 2011.  Translated to SMT2 by Andrew Reynolds and Morgan Deters.|)
(set-info :category "industrial")
(set-info :status unknown)
(declare-sort S1 0)
(declare-sort S2 0)
(declare-sort S3 0)
(declare-sort S4 0)
(declare-sort S5 0)
(declare-sort S6 0)
(declare-sort S7 0)
(declare-sort S8 0)
(declare-sort S9 0)
(declare-sort S10 0)
(declare-sort S11 0)
(declare-sort S12 0)
(declare-sort S13 0)
(declare-sort S14 0)
(declare-sort S15 0)
(declare-sort S16 0)
(declare-sort S17 0)
(declare-sort S18 0)
(declare-sort S19 0)
(declare-sort S20 0)
(declare-sort S21 0)
(declare-sort S22 0)
(declare-sort S23 0)
(declare-sort S24 0)
(declare-sort S25 0)
(declare-sort S26 0)
(declare-sort S27 0)
(declare-sort S28 0)
(declare-sort S29 0)
(declare-sort S30 0)
(declare-sort S31 0)
(declare-sort S32 0)
(declare-sort S33 0)
(declare-sort S34 0)
(declare-sort S35 0)
(declare-sort S36 0)
(declare-sort S37 0)
(declare-sort S38 0)
(declare-sort S39 0)
(declare-sort S40 0)
(declare-sort S41 0)
(declare-sort S42 0)
(declare-fun f1 () S1)
(declare-fun f2 () S1)
(declare-fun f3 (S5 S4) S1)
(declare-fun f4 (S6 S3) S5)
(declare-fun f5 (S2) S6)
(declare-fun f6 (S3 S7) S1)
(declare-fun f7 (S8 S2) S3)
(declare-fun f8 () S8)
(declare-fun f9 (S9 S7) S7)
(declare-fun f10 (S3) S9)
(declare-fun f11 () S3)
(declare-fun f12 (S10 S3) S3)
(declare-fun f13 () S10)
(declare-fun f14 () S3)
(declare-fun f15 () S7)
(declare-fun f16 (S11 S3) S6)
(declare-fun f17 (S2) S11)
(declare-fun f18 (S2 S12) S1)
(declare-fun f19 (S13 S4) S2)
(declare-fun f20 (S14 S3) S13)
(declare-fun f21 () S14)
(declare-fun f22 () S3)
(declare-fun f23 (S15 S4) S4)
(declare-fun f24 (S16 S3) S15)
(declare-fun f25 () S16)
(declare-fun f26 () S4)
(declare-fun f27 (S17) S12)
(declare-fun f28 () S17)
(declare-fun f29 (S18 S19) S1)
(declare-fun f30 (S20 S4) S18)
(declare-fun f31 (S21 S3) S20)
(declare-fun f32 () S21)
(declare-fun f33 (S22) S19)
(declare-fun f34 (S23 S17) S22)
(declare-fun f35 () S23)
(declare-fun f36 (S12 S2) S1)
(declare-fun f37 (S24 S11) S12)
(declare-fun f38 (S25 S11) S24)
(declare-fun f39 (S6) S25)
(declare-fun f40 () S2)
(declare-fun f41 () S22)
(declare-fun f42 (S26 S28) S1)
(declare-fun f43 (S27) S28)
(declare-fun f44 (S29 S27) S27)
(declare-fun f45 (S30 S26) S29)
(declare-fun f46 () S30)
(declare-fun f47 (S31 S32) S1)
(declare-fun f48 (S26) S32)
(declare-fun f49 (S33 S26) S26)
(declare-fun f50 (S34 S31) S33)
(declare-fun f51 () S34)
(declare-fun f52 (S4) S7)
(declare-fun f53 (S35 S17) S17)
(declare-fun f54 (S36 S2) S35)
(declare-fun f55 () S36)
(declare-fun f56 (S37 S22) S22)
(declare-fun f57 (S38 S18) S37)
(declare-fun f58 () S38)
(declare-fun f59 () S3)
(declare-fun f60 () S4)
(declare-fun f61 (S2 S4) S1)
(declare-fun f62 () S4)
(declare-fun f63 () S8)
(declare-fun f64 () S3)
(declare-fun f65 () S3)
(declare-fun f66 (S39 S28) S28)
(declare-fun f67 (S26) S39)
(declare-fun f68 (S40 S32) S32)
(declare-fun f69 (S31) S40)
(declare-fun f70 (S41 S12) S12)
(declare-fun f71 (S2) S41)
(declare-fun f72 (S42 S19) S19)
(declare-fun f73 (S18) S42)
(declare-fun f74 () S17)
(declare-fun f75 () S4)
(declare-fun f76 () S26)
(declare-fun f77 () S27)
(declare-fun f78 () S32)
(declare-fun f79 () S28)
(declare-fun f80 () S12)
(declare-fun f81 () S19)
(assert (not (= f1 f2)))
(assert (forall ((?v0 S2) (?v1 S3) (?v2 S4)) (= (= (f3 (f4 (f5 ?v0) ?v1) ?v2) f1) (= (f6 (f7 f8 ?v0) (f9 (f10 f11) (f9 (f10 (f12 f13 f14)) f15))) f1))))
(assert (forall ((?v0 S2) (?v1 S3) (?v2 S3) (?v3 S4)) (= (= (f3 (f4 (f16 (f17 ?v0) ?v1) ?v2) ?v3) f1) (= (f7 f8 ?v0) f11))))
(assert (not (= (f18 (f19 (f20 f21 f22) (f23 (f24 f25 f11) f26)) (f27 f28)) f1)))
(assert (= (f29 (f30 (f31 f32 f22) f26) (f33 (f34 f35 f28))) f1))
(assert (forall ((?v0 S2)) (let ((?v_0 (f17 ?v0))) (=> (= (f18 ?v0 (f27 f28)) f1) (= (f36 (f37 (f38 (f39 (f5 ?v0)) ?v_0) ?v_0) ?v0) f1)))))
(assert (= (f18 f40 (f27 f28)) f1))
(assert (= (f29 (f30 (f31 f32 f22) f26) (f33 (f34 f35 f28))) f1))
(assert (not (= (f34 f35 f28) f41)))
(assert (forall ((?v0 S26) (?v1 S26) (?v2 S27)) (=> (= (f42 ?v0 (f43 (f44 (f45 f46 ?v1) ?v2))) f1) (or (= ?v0 ?v1) (= (f42 ?v0 (f43 ?v2)) f1)))))
(assert (forall ((?v0 S31) (?v1 S31) (?v2 S26)) (=> (= (f47 ?v0 (f48 (f49 (f50 f51 ?v1) ?v2))) f1) (or (= ?v0 ?v1) (= (f47 ?v0 (f48 ?v2)) f1)))))
(assert (forall ((?v0 S3) (?v1 S3) (?v2 S4)) (=> (= (f6 ?v0 (f52 (f23 (f24 f25 ?v1) ?v2))) f1) (or (= ?v0 ?v1) (= (f6 ?v0 (f52 ?v2)) f1)))))
(assert (forall ((?v0 S2) (?v1 S2) (?v2 S17)) (=> (= (f18 ?v0 (f27 (f53 (f54 f55 ?v1) ?v2))) f1) (or (= ?v0 ?v1) (= (f18 ?v0 (f27 ?v2)) f1)))))
(assert (forall ((?v0 S18) (?v1 S18) (?v2 S22)) (=> (= (f29 ?v0 (f33 (f56 (f57 f58 ?v1) ?v2))) f1) (or (= ?v0 ?v1) (= (f29 ?v0 (f33 ?v2)) f1)))))
(assert (= f40 (f19 (f20 f21 f59) (f23 (f24 f25 (f12 f13 f14)) f60))))
(assert (exists ((?v0 S3)) (forall ((?v1 S2)) (=> (= (f18 ?v1 (f27 f28)) f1) (= (f61 ?v1 (f23 (f24 f25 ?v0) f62)) f1)))))
(assert (forall ((?v0 S2)) (=> (= (f18 ?v0 (f27 f28)) f1) (not (= (f7 f63 ?v0) f64)))))
(assert (forall ((?v0 S3) (?v1 S4) (?v2 S3) (?v3 S4)) (= (= (f19 (f20 f21 ?v0) ?v1) (f19 (f20 f21 ?v2) ?v3)) (and (= ?v0 ?v2) (= ?v1 ?v3)))))
(assert (forall ((?v0 S2)) (=> (= (f18 ?v0 (f27 f28)) f1) (= (f61 ?v0 (f23 (f24 f25 f65) f62)) f1))))
(assert (forall ((?v0 S26) (?v1 S27)) (= (f43 (f44 (f45 f46 ?v0) ?v1)) (f66 (f67 ?v0) (f43 ?v1)))))
(assert (forall ((?v0 S31) (?v1 S26)) (= (f48 (f49 (f50 f51 ?v0) ?v1)) (f68 (f69 ?v0) (f48 ?v1)))))
(assert (forall ((?v0 S3) (?v1 S4)) (= (f52 (f23 (f24 f25 ?v0) ?v1)) (f9 (f10 ?v0) (f52 ?v1)))))
(assert (forall ((?v0 S2) (?v1 S17)) (= (f27 (f53 (f54 f55 ?v0) ?v1)) (f70 (f71 ?v0) (f27 ?v1)))))
(assert (forall ((?v0 S18) (?v1 S22)) (= (f33 (f56 (f57 f58 ?v0) ?v1)) (f72 (f73 ?v0) (f33 ?v1)))))
(assert (=> (forall ((?v0 S3) (?v1 S4)) (=> (= f40 (f19 (f20 f21 ?v0) (f23 (f24 f25 (f12 f13 f14)) ?v1))) false)) false))
(assert (forall ((?v0 S22) (?v1 S18)) (not (= ?v0 (f56 (f57 f58 ?v1) ?v0)))))
(assert (forall ((?v0 S17) (?v1 S2)) (not (= ?v0 (f53 (f54 f55 ?v1) ?v0)))))
(assert (forall ((?v0 S4) (?v1 S3)) (not (= ?v0 (f23 (f24 f25 ?v1) ?v0)))))
(assert (forall ((?v0 S27) (?v1 S26)) (not (= ?v0 (f44 (f45 f46 ?v1) ?v0)))))
(assert (forall ((?v0 S26) (?v1 S31)) (not (= ?v0 (f49 (f50 f51 ?v1) ?v0)))))
(assert (forall ((?v0 S18) (?v1 S22)) (not (= (f56 (f57 f58 ?v0) ?v1) ?v1))))
(assert (forall ((?v0 S2) (?v1 S17)) (not (= (f53 (f54 f55 ?v0) ?v1) ?v1))))
(assert (forall ((?v0 S3) (?v1 S4)) (not (= (f23 (f24 f25 ?v0) ?v1) ?v1))))
(assert (forall ((?v0 S26) (?v1 S27)) (not (= (f44 (f45 f46 ?v0) ?v1) ?v1))))
(assert (forall ((?v0 S31) (?v1 S26)) (not (= (f49 (f50 f51 ?v0) ?v1) ?v1))))
(assert (forall ((?v0 S18) (?v1 S22) (?v2 S18) (?v3 S22)) (= (= (f56 (f57 f58 ?v0) ?v1) (f56 (f57 f58 ?v2) ?v3)) (and (= ?v0 ?v2) (= ?v1 ?v3)))))
(assert (forall ((?v0 S2) (?v1 S17) (?v2 S2) (?v3 S17)) (= (= (f53 (f54 f55 ?v0) ?v1) (f53 (f54 f55 ?v2) ?v3)) (and (= ?v0 ?v2) (= ?v1 ?v3)))))
(assert (forall ((?v0 S3) (?v1 S4) (?v2 S3) (?v3 S4)) (= (= (f23 (f24 f25 ?v0) ?v1) (f23 (f24 f25 ?v2) ?v3)) (and (= ?v0 ?v2) (= ?v1 ?v3)))))
(assert (forall ((?v0 S26) (?v1 S27) (?v2 S26) (?v3 S27)) (= (= (f44 (f45 f46 ?v0) ?v1) (f44 (f45 f46 ?v2) ?v3)) (and (= ?v0 ?v2) (= ?v1 ?v3)))))
(assert (forall ((?v0 S31) (?v1 S26) (?v2 S31) (?v3 S26)) (= (= (f49 (f50 f51 ?v0) ?v1) (f49 (f50 f51 ?v2) ?v3)) (and (= ?v0 ?v2) (= ?v1 ?v3)))))
(assert (forall ((?v0 S3)) (= (= f11 ?v0) (= ?v0 f11))))
(assert (= (f61 f40 (f23 (f24 f25 f65) f62)) f1))
(assert (=> (forall ((?v0 S3)) (=> (forall ((?v1 S2)) (=> (= (f18 ?v1 (f27 f28)) f1) (= (f61 ?v1 (f23 (f24 f25 ?v0) f62)) f1))) false)) false))
(assert (forall ((?v0 S3)) (= (= f64 ?v0) (= ?v0 f64))))
(assert (forall ((?v0 S2) (?v1 S17)) (not (= (f53 (f54 f55 ?v0) ?v1) f74))))
(assert (forall ((?v0 S3) (?v1 S4)) (not (= (f23 (f24 f25 ?v0) ?v1) f75))))
(assert (forall ((?v0 S18) (?v1 S22)) (not (= (f56 (f57 f58 ?v0) ?v1) f41))))
(assert (forall ((?v0 S31) (?v1 S26)) (not (= (f49 (f50 f51 ?v0) ?v1) f76))))
(assert (forall ((?v0 S26) (?v1 S27)) (not (= (f44 (f45 f46 ?v0) ?v1) f77))))
(assert (forall ((?v0 S2) (?v1 S17)) (not (= f74 (f53 (f54 f55 ?v0) ?v1)))))
(assert (forall ((?v0 S3) (?v1 S4)) (not (= f75 (f23 (f24 f25 ?v0) ?v1)))))
(assert (forall ((?v0 S18) (?v1 S22)) (not (= f41 (f56 (f57 f58 ?v0) ?v1)))))
(assert (forall ((?v0 S31) (?v1 S26)) (not (= f76 (f49 (f50 f51 ?v0) ?v1)))))
(assert (forall ((?v0 S26) (?v1 S27)) (not (= f77 (f44 (f45 f46 ?v0) ?v1)))))
(assert (forall ((?v0 S3) (?v1 S4)) (= (f7 f63 (f19 (f20 f21 ?v0) ?v1)) f11)))
(assert (forall ((?v0 S6) (?v1 S11) (?v2 S11) (?v3 S3) (?v4 S4)) (= (= (f36 (f37 (f38 (f39 ?v0) ?v1) ?v2) (f19 (f20 f21 ?v3) ?v4)) f1) (= (f3 (f4 ?v0 ?v3) ?v4) f1))))
(assert (forall ((?v0 S4)) (= (= (f52 ?v0) f15) (= ?v0 f75))))
(assert (forall ((?v0 S26)) (= (= (f48 ?v0) f78) (= ?v0 f76))))
(assert (forall ((?v0 S27)) (= (= (f43 ?v0) f79) (= ?v0 f77))))
(assert (forall ((?v0 S17)) (= (= (f27 ?v0) f80) (= ?v0 f74))))
(assert (forall ((?v0 S22)) (= (= (f33 ?v0) f81) (= ?v0 f41))))
(assert (forall ((?v0 S4)) (= (= f15 (f52 ?v0)) (= ?v0 f75))))
(assert (forall ((?v0 S26)) (= (= f78 (f48 ?v0)) (= ?v0 f76))))
(assert (forall ((?v0 S27)) (= (= f79 (f43 ?v0)) (= ?v0 f77))))
(assert (forall ((?v0 S17)) (= (= f80 (f27 ?v0)) (= ?v0 f74))))
(assert (forall ((?v0 S22)) (= (= f81 (f33 ?v0)) (= ?v0 f41))))
(assert (= (f52 f75) f15))
(assert (= (f48 f76) f78))
(assert (= (f43 f77) f79))
(assert (= (f27 f74) f80))
(assert (= (f33 f41) f81))
(assert (forall ((?v0 S31) (?v1 S31) (?v2 S32)) (=> (= (f47 ?v0 (f68 (f69 ?v1) ?v2)) f1) (=> (=> (= ?v0 ?v1) false) (=> (=> (= (f47 ?v0 ?v2) f1) false) false)))))
(assert (forall ((?v0 S26) (?v1 S26) (?v2 S28)) (=> (= (f42 ?v0 (f66 (f67 ?v1) ?v2)) f1) (=> (=> (= ?v0 ?v1) false) (=> (=> (= (f42 ?v0 ?v2) f1) false) false)))))
(assert (forall ((?v0 S2) (?v1 S2) (?v2 S12)) (=> (= (f18 ?v0 (f70 (f71 ?v1) ?v2)) f1) (=> (=> (= ?v0 ?v1) false) (=> (=> (= (f18 ?v0 ?v2) f1) false) false)))))
(assert (forall ((?v0 S18) (?v1 S18) (?v2 S19)) (=> (= (f29 ?v0 (f72 (f73 ?v1) ?v2)) f1) (=> (=> (= ?v0 ?v1) false) (=> (=> (= (f29 ?v0 ?v2) f1) false) false)))))
(assert (forall ((?v0 S3) (?v1 S3) (?v2 S7)) (=> (= (f6 ?v0 (f9 (f10 ?v1) ?v2)) f1) (=> (=> (= ?v0 ?v1) false) (=> (=> (= (f6 ?v0 ?v2) f1) false) false)))))
(assert (forall ((?v0 S31) (?v1 S32) (?v2 S31)) (=> (=> (not (= (f47 ?v0 ?v1) f1)) (= ?v0 ?v2)) (= (f47 ?v0 (f68 (f69 ?v2) ?v1)) f1))))
(assert (forall ((?v0 S26) (?v1 S28) (?v2 S26)) (=> (=> (not (= (f42 ?v0 ?v1) f1)) (= ?v0 ?v2)) (= (f42 ?v0 (f66 (f67 ?v2) ?v1)) f1))))
(assert (forall ((?v0 S2) (?v1 S12) (?v2 S2)) (=> (=> (not (= (f18 ?v0 ?v1) f1)) (= ?v0 ?v2)) (= (f18 ?v0 (f70 (f71 ?v2) ?v1)) f1))))
(assert (forall ((?v0 S18) (?v1 S19) (?v2 S18)) (=> (=> (not (= (f29 ?v0 ?v1) f1)) (= ?v0 ?v2)) (= (f29 ?v0 (f72 (f73 ?v2) ?v1)) f1))))
(assert (forall ((?v0 S3) (?v1 S7) (?v2 S3)) (=> (=> (not (= (f6 ?v0 ?v1) f1)) (= ?v0 ?v2)) (= (f6 ?v0 (f9 (f10 ?v2) ?v1)) f1))))
(assert (forall ((?v0 S17)) (=> (=> (= ?v0 f74) false) (=> (forall ((?v1 S2) (?v2 S17)) (=> (= ?v0 (f53 (f54 f55 ?v1) ?v2)) false)) false))))
(assert (forall ((?v0 S4)) (=> (=> (= ?v0 f75) false) (=> (forall ((?v1 S3) (?v2 S4)) (=> (= ?v0 (f23 (f24 f25 ?v1) ?v2)) false)) false))))
(assert (forall ((?v0 S22)) (=> (=> (= ?v0 f41) false) (=> (forall ((?v1 S18) (?v2 S22)) (=> (= ?v0 (f56 (f57 f58 ?v1) ?v2)) false)) false))))
(assert (forall ((?v0 S26)) (=> (=> (= ?v0 f76) false) (=> (forall ((?v1 S31) (?v2 S26)) (=> (= ?v0 (f49 (f50 f51 ?v1) ?v2)) false)) false))))
(assert (forall ((?v0 S27)) (=> (=> (= ?v0 f77) false) (=> (forall ((?v1 S26) (?v2 S27)) (=> (= ?v0 (f44 (f45 f46 ?v1) ?v2)) false)) false))))
(assert (forall ((?v0 S17)) (= (not (= ?v0 f74)) (exists ((?v1 S2) (?v2 S17)) (= ?v0 (f53 (f54 f55 ?v1) ?v2))))))
(assert (forall ((?v0 S4)) (= (not (= ?v0 f75)) (exists ((?v1 S3) (?v2 S4)) (= ?v0 (f23 (f24 f25 ?v1) ?v2))))))
(assert (forall ((?v0 S22)) (= (not (= ?v0 f41)) (exists ((?v1 S18) (?v2 S22)) (= ?v0 (f56 (f57 f58 ?v1) ?v2))))))
(assert (forall ((?v0 S26)) (= (not (= ?v0 f76)) (exists ((?v1 S31) (?v2 S26)) (= ?v0 (f49 (f50 f51 ?v1) ?v2))))))
(assert (forall ((?v0 S27)) (= (not (= ?v0 f77)) (exists ((?v1 S26) (?v2 S27)) (= ?v0 (f44 (f45 f46 ?v1) ?v2))))))
(assert (not (= f64 f11)))
(assert (not (= f64 f11)))
(assert (forall ((?v0 S31)) (=> (= (f47 ?v0 f78) f1) false)))
(assert (forall ((?v0 S26)) (=> (= (f42 ?v0 f79) f1) false)))
(assert (forall ((?v0 S2)) (=> (= (f18 ?v0 f80) f1) false)))
(assert (forall ((?v0 S18)) (=> (= (f29 ?v0 f81) f1) false)))
(assert (forall ((?v0 S3)) (=> (= (f6 ?v0 f15) f1) false)))
(check-sat)
(exit)
